1296
Lattice="23.468516296693114 0.0 0.0 0.0 22.06071794154615 0.0 0.0 0.0 27.10955554627126" Properties=species:S:1:pos:R:3:spacegroup_kinds:I:1 spacegroup="P 1" unit_cell=conventional material=ice_Ih ice="proton-disordered Ih" genice_version=2.2.13.3 genice_seed=42296 repeats=3x3x3 pbc="T T T"
O       16.99589950       1.83324566      21.39757219        0
H       16.10409588       1.48689239      21.42739270        1
H       17.41363909       1.49792275      22.18917121        2
O       20.92218228       4.47170753      19.13121335        3
H       21.34226872       4.80923651      19.92552333        4
H       20.03037866       4.81806080      19.16645577        5
O       22.17774790       5.46002769      21.38130646        6
H       23.07659207       5.13794121      21.42468175        7
H       21.76470201       5.12911692      22.17832739        8
O       20.87055154       4.56436254      23.63682148        9
H       21.33053446       4.84453366      24.42842050       10
H       20.88228580       3.60913346      23.67748581       11
O       18.28666790       0.91110765      23.65308721       12
H       18.27493364      22.01659651      23.69104059       13
H       17.83137868       1.18907270      24.44739719       14
O       18.27728049       5.50856127      23.72628301       15
H       19.16908411       5.16220800      23.69104059       16
H       17.85954090       5.17103229      22.93468399       17
O       20.84238932       1.71191171      19.23422966       18
H       20.86820469       2.66934687      19.20169819       19
H       21.29533169       1.43174059      18.43991968       20
O       20.89636691       1.80456673      23.64766530       21
H       21.30941280       1.46703774      24.44197528       22
H       19.99986959       1.47586203      23.68561868       23
O       16.94192191       4.53568361      25.93571179       24
H       17.42772020       4.86880045      25.17935519       25
H       17.42537335       4.86218223      26.69477935       26
O       17.04753024       4.59304148      21.43010366       27
H       17.01232746       3.63560632      21.43552557       28
H       16.13225810       4.86880045      21.43010366       29
O       18.35707345       5.48870662      19.17458864       30
H       17.87362201       5.16441407      18.41552108       31
H       17.87127516       5.15558978      19.93094524       32
O       18.23269031       0.81845264      19.14747908       33
H       19.13153449       1.14715733      19.18272150       34
H       17.81964442       1.16259984      19.93907810       35
O       22.21529753       0.78977370      21.44636939       36
H       21.73888665       1.13612697      22.20272599       37
H       21.73888665       1.12950876      20.68730184       38
O       22.10734235       0.88242872      25.95197752       39
H       23.02026764       1.17583627      25.94926657       40
H       22.16366679      21.98791757      25.94384466       41
O       22.15193253       5.40487590      25.93028988       42
H       23.07189837       5.14014728      25.93300084       43
H       22.17774790       6.36231105      25.93842275       44
O       16.94192191       1.77588779      25.90046937       45
H       16.97477784       2.73332295      25.93571179       46
H       17.39251743       1.49130453      26.69477935       47
O        1.37760191       9.11328258       3.36971775       48
H        1.33301173      10.06851167       3.36429584       49
H        0.46232977       8.83090539       3.36971775       50
O        5.27572246      11.82454482       1.05998362       51
H        5.69580891      12.16207380       1.85158264       52
H        4.38391884      12.17089809       1.09522604       53
O        6.58526567      12.74006461       3.30736578       54
H        6.12762961      12.45768742       4.09896480       55
H        6.55475660      13.69749977       3.34260820       56
O        5.22409173      11.91940590       5.56559175       57
H        5.23582599      10.96197075       5.60354513       58
H        5.68407465      12.19737095       6.35719078       59
O        2.66837030       8.18893850       5.62523278       60
H        2.19195942       8.53529177       6.38158938       61
H        2.19195942       8.52867356       4.86887618       62
O        2.60500531      12.78639212       5.60625609       63
H        3.52262430      12.50842707       5.60896704       64
H        2.64255494      13.74162121       5.61438895       65
O        5.27806932       9.06474900       1.11691369       66
H        4.35810348       8.79560824       1.11691369       67
H        5.24521339      10.02218416       1.11149178       68
O        5.24990710       9.15961009       5.66860806       69
H        4.35340977       8.82869932       5.63336564       70
H        5.66295298       8.81325682       4.87700904       71
O        1.32362432      11.96573341       7.90785735       72
H        1.78360724      12.23708024       7.11354738       73
H        1.33535858      11.00829825       7.87532589       74
O        1.37760191      11.87307840       3.31278769       75
H        0.47641088      12.19737095       3.35345202       76
H        1.79064779      12.21060738       4.10438671       77
O        2.71296048      12.84154391       1.10064796       78
H        2.22716220      12.51725136       0.34158040       79
H        2.22716220      12.51063314       1.85700455       80
O        2.64020808       8.24629637       1.07353840       81
H        2.63082068       7.29106728       1.11149178       82
H        2.18491887       8.52426141       1.86784838       83
O        6.48904476       8.14481706       3.41851495       84
H        7.38084838       8.49117034       3.38598349       85
H        6.07130517       8.48013998       2.62691593       86
O        6.54067549       8.23747208       7.92412309       87
H        6.53598179       7.28224299       7.88074780       88
H        6.08773313       8.51764320       7.12981311       89
O        6.53363494      12.83271963       7.81297391       90
H        6.12058905      12.49519064       8.60728389       91
H        7.43247911      12.51063314       7.85092729       92
O        1.34943969       9.20593760       7.82923964       93
H        0.45763607       8.85958433       7.85634920       94
H        1.76483243       8.86179040       8.61812771       95
O       16.91610655      16.54112631      21.44094748       96
H       17.39251743      16.19477304      20.68730184       97
H       17.39251743      16.20139126      22.20001504       98
O       20.87055154      19.25459462      19.13121335       99
H       21.33053446      19.53255967      19.92281237      100
H       20.87993895      18.29715946      19.17187768      101
O       22.23172549      20.09510797      21.38130646      102
H       22.20121642      21.05033706      21.41383793      103
H       21.77174257      19.81273078      22.17290548      104
O       20.95034450      19.27224319      23.68290773      105
H       20.89871376      18.31480804      23.68832964      106
H       20.03741921      19.55903253      23.68290773      107
O       18.20687494      15.61898830      23.69917346      108
H       19.12214708      15.90136549      23.69646250      109
H       18.25146512      14.66155314      23.69375155      110
O       18.35707345      20.21423585      23.68019677      111
H       17.87596886      19.88332508      24.43926432      112
H       17.87596886      19.87891294      22.92384017      113
O       20.89636691      16.49479880      19.14205717      114
H       19.99986959      16.16388804      19.18001055      115
H       21.30941280      16.15506375      19.93636715      116
O       20.81657396      16.51244738      23.69375155      117
H       21.29298484      16.17491839      24.45281910      118
H       21.29298484      16.16830018      22.94010590      119
O       17.04753024      19.31857070      25.93571179      120
H       17.01232746      18.36113554      25.93842275      121
H       16.13225810      19.59432968      25.93300084      122
O       16.97008413      19.30092213      21.47618990      123
H       17.43006705      19.57226896      20.68187993      124
H       16.98181839      18.34348697      21.44636939      125
O       18.25146512      20.12158083      19.17458864      126
H       18.28901475      21.07901599      19.18001055      127
H       19.16673726      19.84582186      19.17458864      128
O       18.28666790      15.59913366      19.23965157      129
H       17.83607239      15.88371692      18.44534159      130
H       18.27728049      14.64390457      19.19356533      131
O       22.10734235      15.57266079      21.44636939      132
H       23.02026764      15.86606834      21.44365844      133
H       22.16366679      14.61743171      21.44094748      134
O       22.10734235      15.59030937      25.95197752      135
H       22.16366679      14.63508028      25.94384466      136
H       23.02026764      15.88371692      25.94926657      137
O       22.25754086      20.18776299      25.93028988      138
H       21.78347683      19.84802793      26.68935744      139
H       21.77643627      19.85023400      25.17664424      140
O       16.99589950      16.55877489      25.99264186      141
H       17.41363909      16.21683376      25.20104284      142
H       16.10409588      16.21242162      25.96282135      143
O       16.94192191       9.11328258       3.32363151      144
H       16.97243099      10.06851167       3.35616298      145
H       17.39721113       8.83090539       4.11794149      146
O       20.95034450      11.89955126       1.10606987      147
H       20.89871376      10.94432217       1.10878082      148
H       20.03741921      12.18854666       1.10335891      149
O       22.23172549      12.74006461       3.39953827      150
H       22.19652271      13.69749977       3.37242871      151
H       21.77174257      12.45989349       2.60793924      152
O       20.84238932      11.84439946       5.61167800      153
H       21.32349391      12.17972238       6.36532364      154
H       21.32349391      12.17310416       4.85261044      155
O       18.28666790       8.26615101       5.57914653      156
H       18.27493364       7.30871585       5.61709991      157
H       17.83137868       8.54190999       6.37345651      158
O       18.25146512      12.78639212       5.60625609      159
H       19.16673726      12.50842707       5.60896704      160
H       18.28901475      13.74162121       5.61438895      161
O       20.89636691       9.13975544       1.16299993      162
H       21.30706595       8.80884467       0.36326804      163
H       19.99986959       8.81105075       1.12775751      164
O       20.92218228       9.08460365       5.62252182      165
H       20.88932636      10.03983274       5.61709991      166
H       20.00456329       8.81325682       5.62252182      167
O       16.97008413      11.96573341       7.90785735      168
H       17.43006705      12.23708024       7.11354738      169
H       16.98181839      11.00829825       7.87532589      170
O       17.02171487      11.87307840       3.31278769      171
H       16.12287070      12.19737095       3.35345202      172
H       17.43476076      12.21060738       4.10438671      173
O       18.35707345      12.84154391       1.10064796      174
H       17.87362201      12.51725136       0.34158040      175
H       17.87127516      12.51063314       1.85700455      176
O       18.28666790       8.24629637       1.07353840      177
H       18.27493364       7.29106728       1.11149178      178
H       17.83137868       8.52426141       1.86784838      179
O       22.21529753       8.14481706       3.37242871      180
H       21.73888665       8.48234605       2.61607211      181
H       21.73888665       8.48896426       4.12878531      182
O       22.18713531       8.23747208       7.92412309      183
H       21.73184609       8.51764320       7.12981311      184
H       22.18244160       7.28224299       7.88074780      185
O       22.17774790      12.83271963       7.81297391      186
H       23.07893893      12.51063314       7.85092729      187
H       21.76704887      12.49519064       8.60728389      188
O       16.99589950       9.20593760       7.82923964      189
H       17.41129224       8.86179040       8.61812771      190
H       16.10409588       8.85958433       7.85634920      191
O        9.11986543      16.46611987      21.39757219      192
H        9.57515465      16.18594875      22.18917121      193
H        9.15037450      17.42134896      21.42739270      194
O       13.12594116      19.25459462      19.17729959      195
H       13.07665728      18.29715946      19.18272150      196
H       12.21301588      19.54138395      19.17729959      197
O       14.35569142      20.16790834      21.47347895      198
H       13.94029868      19.82817329      20.67916897      199
H       15.25453559      19.84361579      21.43281461      200
O       13.04614821      19.27224319      23.72899397      201
H       13.05788247      18.31701411      23.69917346      202
H       13.50613113      19.54359002      22.93468399      203
O       10.41063383      15.54398186      23.65308721      204
H        9.99758794      15.88812906      24.44468624      205
H       11.30947800      15.87268656      23.68832964      206
O       10.45522401      20.21644192      23.72628301      207
H       10.03513757      19.87891294      22.93468399      208
H       11.34702763      19.86788258      23.69104059      209
O       13.07431043      16.49479880      19.23694062      210
H       12.17546625      16.16388804      19.19898724      211
H       13.48500946      16.16168196      18.43720873      212
O       12.99451747      16.51244738      23.69375155      213
H       13.46858150      16.17491839      24.45281910      214
H       13.46858150      16.16830018      22.94010590      215
O        9.11751858      19.24356426      25.93571179      216
H        9.60331687      19.57006289      26.69477935      217
H        9.60331687      19.57668110      25.17935519      218
O        9.19965839      19.22591569      21.47890086      219
H        8.30081421      19.55020824      21.43552557      220
H        9.61270428      19.55903253      20.68187993      221
O       10.50920160      20.12158083      19.22067488      222
H       10.05156553      19.84802793      18.42365395      223
H       10.47634567      21.07901599      19.19898724      224
O       10.49042678      15.52412722      19.19356533      225
H       10.01636276      15.87048049      19.94992193      226
H       10.02105646      15.87268656      18.43449777      227
O       14.31344809      15.49765435      21.49245564      228
H       15.20290486      15.84400763      21.45992417      229
H       13.89570850      15.83518334      20.69814566      230
O       14.36507883      15.59251544      25.90318032      231
H       14.35803827      14.63508028      25.93571179      232
H       13.91213646      15.86165620      26.70291221      233
O       14.43548437      20.18776299      25.93028988      234
H       13.95907349      19.84802793      26.68935744      235
H       13.95437979      19.85023400      25.17664424      236
O        9.11986543      16.48376845      25.90046937      237
H        9.57046095      16.19918518      26.69477935      238
H        9.15037450      17.43899753      25.93571179      239
O        1.34943969       1.83545173      12.45141886      240
H        0.45763607       1.48689239      12.42159835      241
H        1.76717928       1.49130453      11.66253080      242
O        5.27572246       4.47170753      10.18777097      243
H        4.38391884       4.81585473      10.15523951      244
H        5.69346205       4.80923651       9.39617195      245
O        6.53128809       5.46223376      12.43786408      246
H        7.43247911       5.13794121      12.39719975      247
H        6.11824220       5.12249871      11.64355411      248
O        5.22409173       4.56436254      14.69337911      249
H        5.68407465       4.83791544      13.89906913      250
H        5.23582599       3.60913346      14.66084764      251
O        2.66837030       0.83610121      14.66355859      252
H        2.19195942       1.17583627      13.90449104      253
H        2.19195942       1.18245448      15.41720424      254
O        2.63316753       5.50856127      14.59849566      255
H        3.52262430       5.16220800      14.63373808      256
H        2.21308109       5.17765050      15.39009468      257
O        5.27806932       1.71191171      10.15252855      258
H        4.35810348       1.44056488      10.15523951      259
H        5.24521339       2.66934687      10.14981760      260
O        5.24990710       1.80677280      14.70422293      261
H        5.66295298       1.46041953      13.91262391      262
H        4.35340977       1.47586203      14.66898051      263
O        1.40341727       4.61069005      16.90009693      264
H        1.36586765       3.65546096      16.90280788      265
H        0.48579829       4.88644902      16.89738597      266
O        1.32362432       4.59304148      12.34840255      267
H        1.78360724       4.87100652      13.14000157      268
H        1.33535858       3.63560632      12.38906688      269
O        2.68479826       5.41590625      10.09288753      270
H        2.65428919       6.37113534      10.12541900      271
H        2.22716220       5.13352906      10.88448655      272
O        2.64020808       0.89345908      10.20403671      273
H        2.63316753      21.99674186      10.15523951      274
H        2.19195942       1.17583627       9.40701577      275
O        6.54067549       0.86698622      12.45684077      276
H        6.08773313       1.14495126      11.66253080      277
H        6.53598179      21.97026900      12.41346548      278
O        6.56883771       0.80962835      16.91365171      279
H        6.09007998       1.14936340      16.16000606      280
H        6.09242683       1.14274519      17.67271926      281
O        6.58761252       5.40487590      16.94076126      282
H        6.55240975       6.36231105      16.91365171      283
H        6.12528275       5.12470478      16.14916224      284
O        1.34943969       1.85310031      16.86485451      285
H        1.76483243       1.50895311      17.65645353      286
H        0.45763607       1.50674704      16.89196406      287
O        1.29780895      16.46611987      12.35924637      288
H        1.32597117      17.42134896      12.39177784      289
H        1.75075132      16.18594875      13.15355635      290
O        5.22409173      19.25459462      10.09559849      291
H        5.68407465      19.53255967      10.88719751      292
H        5.23582599      18.29715946      10.13626282      293
O        6.53128809      20.16790834      12.34298064      294
H        7.43247911      19.84361579      12.38635593      295
H        6.11824220      19.83479150      13.14000157      296
O        5.27572246      19.19723675      14.60120662      297
H        5.69580891      19.53476574      15.39280564      298
H        4.38391884      19.54359002      14.63644904      299
O        2.64020808      15.61898830      14.61476139      300
H        2.18491887      15.89695335      15.41178233      301
H        2.63082068      14.66375922      14.65542573      302
O        2.68714512      20.13922941      14.68795719      303
H        2.64959549      21.09666457      14.66084764      304
H        2.22481534      19.85905829      13.89906913      305
O        5.25225395      16.49479880      10.19861480      306
H        5.66060613      16.16168196       9.40159386      307
H        4.35340977      16.16388804      10.16337237      308
O        5.27806932      16.43744094      14.65813668      309
H        5.24521339      17.39487610      14.65542573      310
H        4.35810348      16.16609411      14.66084764      311
O        1.37760191      19.24356426      16.94618317      312
H        0.47641088      19.56785681      16.90280788      313
H        1.79064779      19.57668110      16.14916224      314
O        1.37760191      19.22591569      12.44057504      315
H        0.47641088      19.55020824      12.39719975      316
H        1.79064779      19.55903253      11.64355411      317
O        2.63316753      20.19658728      10.18506002      318
H        2.21542794      19.87229472       9.38532813      319
H        3.52262430      19.85023400      10.14710664      320
O        2.66602345      15.52412722      10.15795046      321
H        2.19195942      15.87048049      10.91159611      322
H        2.19665313      15.87268656       9.39888291      323
O        6.56883771      15.49765435      12.41075453      324
H        6.09242683      15.84400763      13.16440017      325
H        6.09242683      15.83738941      11.65168697      326
O        6.48904476      15.51530293      16.95973795      327
H        6.07130517      15.85283191      16.16813893      328
H        7.38084838      15.86165620      16.92720648      329
O        6.58761252      20.11275655      16.84858877      330
H        6.55475660      21.07019171      16.88654215      331
H        6.13232331      19.82596721      17.64018779      332
O        1.37760191      16.48376845      16.91094075      333
H        1.33301173      17.43899753      16.90551884      334
H        0.46232977      16.20139126      16.91094075      335
O        9.17384302       1.83324566      12.35924637      336
H        9.59158261       1.49792275      13.15355635      337
H        8.28203940       1.48689239      12.39177784      338
O       13.04614821       4.54671397      10.09559849      339
H       13.50613113       4.82467901      10.88719751      340
H       13.05788247       3.59148488      10.13626282      341
O       14.32987605       5.38502125      12.38906688      342
H       14.35334457       6.34245641      12.39719975      343
H       15.24984189       5.12249871      12.39177784      344
O       13.10012580       4.48935610      14.69337911      345
H       13.51786539       4.82026687      13.89906913      346
H       12.20832218       4.83570937      14.65542573      347
O       10.41063383       0.83610121      14.61747235      348
H        9.99758794       1.18245448      15.40907137      349
H       11.30947800       1.16701198      14.65000382      350
O       10.50920160       5.43355483      14.59849566      351
H       10.04921868       5.15117764      15.38738373      352
H       10.47869253       6.38878392      14.63102713      353
O       13.07431043       1.78691815      10.10644231      354
H       13.48735632       1.44938917      10.90075229      355
H       12.17546625       1.45821346      10.14439569      356
O       13.02033284       1.73176636      14.61205044      357
H       13.04849506       2.68699545      14.64458191      358
H       13.47562206       1.44938917      15.40636042      359
O        9.19965839       4.53788968      16.85129973      360
H        8.30081421       4.86218223      16.89467502      361
H        9.61035742       4.86218223      17.65374257      362
O        9.14568080       4.59304148      12.34840255      363
H        9.60566372       4.87100652      13.14000157      364
H        9.15741506       3.63560632      12.38906688      365
O       10.45522401       5.49091270      10.09288753      366
H       11.34702763       5.14455942      10.12812995      367
H       10.03513757       5.16000193      10.88719751      368
O       10.46226457       0.89345908      10.11186422      369
H       10.00697535       1.16921805      10.90617420      370
H       10.45287716      21.99674186      10.14981760      371
O       14.31344809       0.78977370      12.36466828      372
H       15.20290486       1.13833305      12.39448880      373
H       13.89570850       1.13392090      13.15355635      374
O       14.36507883       0.88463479      16.86756546      375
H       14.35803827      21.98791757      16.90009693      376
H       13.91213646       1.15377555      17.66729735      377
O       14.40966901       5.40487590      16.94076126      378
H       13.94968609       5.12470478      16.14916224      379
H       14.37446623       6.36231105      16.91365171      380
O        9.19965839       1.77588779      16.91094075      381
H        9.15741506       2.73332295      16.90551884      382
H        8.28438625       1.49571668      16.91094075      383
O        9.11986543       9.11328258       3.41580400      384
H        9.15037450      10.06851167       3.37513967      385
H        9.57515465       8.82428718       2.62420498      386
O       13.02033284      11.82454482       1.10606987      387
H       13.50143743      12.16207380       1.86242647      388
H       13.49674372      12.16427987       0.34700231      389
O       14.40966901      12.74006461       3.30736578      390
H       14.37915993      13.69749977       3.34260820      391
H       13.94968609      12.45768742       4.09896480      392
O       13.12594116      11.91719983       5.61167800      393
H       12.21301588      12.20619524       5.60896704      394
H       13.07665728      10.96197075       5.61438895      395
O       10.46226457       8.26615101       5.67131902      396
H       10.45757086       7.30871585       5.62794373      397
H       10.00932220       8.54411606       4.87700904      398
O       10.53501697      12.86139856       5.60625609      399
H       10.05391238      12.52386958       4.84989949      400
H       10.05391238      12.53048779       6.36532364      401
O       13.02033284       9.06695507       1.07082744      402
H       13.47562206       8.78457788       1.86513742      403
H       13.04849506      10.02218416       1.10335891      404
O       13.07431043       9.15961009       5.66860806      405
H       13.48735632       8.81325682       4.87700904      406
H       12.17546625       8.82869932       5.63336564      407
O        9.14568080      11.96573341       7.81568486      408
H        9.15506821      11.00829825       7.85092729      409
H        9.60331687      12.23708024       8.61270580      410
O        9.19965839      11.87307840       3.40496018      411
H        8.30081421      12.19516488       3.36158489      412
H        9.61270428      12.20619524       2.60793924      413
O       10.45522401      12.84374999       1.14673420      414
H       10.03748442      12.51945743       0.34971327      415
H       11.34702763      12.49739671       1.11149178      416
O       10.41063383       8.17128993       1.16571089      417
H        9.99993479       8.51764320       0.37411187      418
H       11.30947800       8.49999462       1.13317942      419
O       14.28528587       8.21982351       3.37242871      420
H       14.33926346       7.26238835       3.36700680      421
H       15.19586430       8.51102498       3.37242871      422
O       14.39089419       8.16246564       7.87803684      423
H       13.91213646       8.50440677       7.12168024      424
H       13.91448331       8.49778855       8.63710440      425
O       14.35569142      12.83492570       7.90514640      426
H       13.94264553      12.49519064       7.11083642      427
H       15.25453559      12.50842707       7.86448206      428
O        9.17384302       9.20593760       7.91870118      429
H        9.59158261       8.86179040       7.12981311      430
H        8.28203940       8.85958433       7.88888066      431
O       16.94192191       1.75823922      12.35924637      432
H       17.39721113       1.47806810      13.15355635      433
H       16.97243099       2.71567438      12.39177784      434
O       20.84238932       4.47170753      10.14168473      435
H       21.31880020       4.81144258       9.38532813      436
H       21.32349391       4.80923651      10.89804133      437
O       22.17774790       5.46002769      12.34298064      438
H       23.07659207       5.13794121      12.38635593      439
H       21.76470201       5.12911692      13.14000157      440
O       20.92218228       4.48935610      14.60120662      441
H       20.03037866       4.83570937      14.63644904      442
H       21.34226872       4.82688509      15.39280564      443
O       18.28666790       0.91110765      14.61476139      444
H       18.27493364      22.01659651      14.65542573      445
H       17.83137868       1.18907270      15.41178233      446
O       18.33125808       5.43355483      14.59849566      447
H       18.30074901       6.38878392      14.63102713      448
H       17.87127516       5.15117764      15.38738373      449
O       20.84238932       1.71191171      10.10644231      450
H       20.87289839       2.66934687      10.13897377      451
H       21.29767854       1.43174059      10.90075229      452
O       20.92218228       1.72956029      14.65813668      453
H       20.00456329       1.45821346      14.66084764      454
H       20.88932636       2.68699545      14.65542573      455
O       17.04753024       4.61069005      16.90009693      456
H       16.13225810       4.88644902      16.89738597      457
H       17.01232746       3.65546096      16.90280788      458
O       16.94192191       4.51803503      12.39448880      459
H       17.42302650       4.84894580      11.63542124      460
H       17.42302650       4.85556402      13.15084540      461
O       18.27728049       5.48870662      10.18506002      462
H       17.86188775       5.16441407       9.38532813      463
H       19.16908411       5.14235335      10.14710664      464
O       18.23269031       0.81845264      10.11186422      465
H       19.13153449       1.14715733      10.14439569      466
H       17.81964442       1.16259984      10.90346324      467
O       22.18713531       0.86698622      12.36466828      468
H       21.73184609       1.14274519      13.15897826      469
H       22.17774790      21.97026900      12.40262166      470
O       22.18713531       0.88463479      16.95973795      471
H       21.73184609       1.16259984      16.16542797      472
H       22.18244160      21.98791757      16.91636266      473
O       22.23172549       5.40708197      16.84858877      474
H       22.19886957       6.36231105      16.88654215      475
H       21.77878312       5.12029263      17.64018779      476
O       16.99589950       1.85310031      16.86485451      477
H       16.10409588       1.50674704      16.89196406      478
H       17.41129224       1.50895311      17.65645353      479
O       16.91610655       9.18828902      21.44094748      480
H       17.39251743       8.84855397      22.20001504      481
H       17.39251743       8.84193575      20.68730184      482
O       20.87055154      11.90175733      19.22338584      483
H       21.32584076      12.17751630      18.42907586      484
H       20.88228580      10.94432217      19.18814342      485
O       22.17774790      12.81507105      21.47347895      486
H       23.07659207      12.49077850      21.43281461      487
H       21.76470201      12.47533600      20.67916897      488
O       20.87055154      11.91940590      23.72899397      489
H       21.33053446      12.19075273      22.93468399      490
H       20.87993895      10.96197075      23.69917346      491
O       18.28666790       8.26615101      23.65308721      492
H       17.83137868       8.54190999      24.44739719      493
H       18.27493364       7.30871585      23.69104059      494
O       18.27728049      12.86139856      23.72628301      495
H       17.85954090      12.52386958      22.93468399      496
H       19.16908411      12.51504529      23.69104059      497
O       20.81657396       9.14196151      19.19085437      498
H       21.29533169       8.80002039      19.94450002      499
H       21.29533169       8.80663860      18.43178682      500
O       20.89636691       9.15961009      23.73983779      501
H       21.30941280       8.81325682      22.94823877      502
H       19.99986959       8.82869932      23.70730633      503
O       16.97008413      11.96573341      25.98179804      504
H       16.98181839      11.00829825      25.94926657      505
H       17.43006705      12.23708024      25.18748806      506
O       16.97008413      11.94587877      21.47618990      507
H       17.43006705      12.21943167      20.68187993      508
H       16.98181839      10.99064968      21.44636939      509
O       18.27728049      12.84374999      19.22067488      510
H       17.86188775      12.51945743      18.42094299      511
H       19.16908411      12.49739671      19.18543246      512
O       18.20687494       8.24629637      19.19356533      513
H       19.12214708       8.52867356      19.19356533      514
H       18.25146512       7.29106728      19.18814342      515
O       22.10734235       8.21982351      21.44636939      516
H       22.16366679       7.26238835      21.44094748      517
H       23.02026764       8.51102498      21.44365844      518
O       22.13550457       8.16246564      25.99535281      519
H       21.71776498       8.49778855      25.20375379      520
H       23.02730819       8.50881891      25.96282135      521
O       22.25754086      12.83492570      25.93028988      522
H       21.77643627      12.49739671      25.17664424      523
H       21.78347683      12.49519064      26.68935744      524
O       16.99589950       9.20593760      25.90046937      525
H       17.41129224       8.86179040      26.69206839      526
H       16.10409588       8.85958433      25.93028988      527
O       16.94192191      16.46611987      12.45141886      528
H       17.39721113      16.17933054      11.65981984      529
H       16.97243099      17.42134896      12.41346548      530
O       20.92218228      19.17958818      10.18777097      531
H       20.03037866      19.52373538      10.15523951      532
H       21.33992187      19.51711716       9.39617195      533
O       22.25754086      20.16790834      12.39177784      534
H       21.77643627      19.83258543      11.63542124      535
H       21.77643627      19.83920364      13.14813444      536
O       20.95034450      19.27224319      14.64729286      537
H       20.03741921      19.55903253      14.64729286      538
H       20.89871376      18.31480804      14.65000382      539
O       18.28666790      15.61898830      14.70964484      540
H       18.27962734      14.66375922      14.66626955      541
H       17.83137868      15.89915942      13.91262391      542
O       18.35707345      20.21423585      14.64458191      543
H       17.87596886      19.87891294      13.88822531      544
H       17.87596886      19.88332508      15.40093851      545
O       20.84238932      16.41979236      10.19861480      546
H       20.86820469      17.37722752      10.16608333      547
H       21.29533169      16.13962125       9.40430482      548
O       20.89636691      16.51244738      14.70422293      549
H       19.99986959      16.18374268      14.66898051      550
H       21.30941280      16.16830018      13.91262391      551
O       17.02171487      19.24356426      16.85129973      552
H       17.43241391      19.57006289      17.65374257      553
H       16.12287070      19.56785681      16.89467502      554
O       17.02171487      19.22591569      12.44057504      555
H       16.12287070      19.55020824      12.39719975      556
H       17.43476076      19.55903253      11.64355411      557
O       18.33125808      20.12158083      10.18234906      558
H       18.30074901      21.07901599      10.16066142      559
H       17.87362201      19.84802793       9.38803909      560
O       18.20687494      15.59913366      10.15795046      561
H       19.12214708      15.88151085      10.15523951      562
H       18.25146512      14.64390457      10.14981760      563
O       22.13550457      15.49765435      12.45412982      564
H       23.02730819      15.84400763      12.42159835      565
H       21.71776498      15.83518334      11.66253080      566
O       22.21529753      15.51530293      16.91365171      567
H       21.73653979      15.85724406      16.16000606      568
H       21.73653979      15.85062584      17.67271926      569
O       22.25754086      20.18776299      16.89467502      570
H       21.77643627      19.85023400      16.13831842      571
H       21.78347683      19.84802793      17.65374257      572
O       16.94192191      16.48376845      16.95702699      573
H       17.39721113      16.19697911      16.16542797      574
H       16.97243099      17.43899753      16.91636266      575
O        1.29780895       9.11328258      21.48703373      576
H        1.75075132       8.82428718      20.69543470      577
H        1.32597117      10.06851167      21.44908035      578
O        5.22409173      11.89955126      19.13121335      579
H        5.68407465      12.17972238      19.92281237      580
H        5.23582599      10.94432217      19.17187768      581
O        6.50547272      12.74006461      21.42739270      582
H        7.42543856      12.47533600      21.42739270      583
H        6.53128809      13.69529370      21.43281461      584
O        5.19592951      11.84439946      23.68290773      585
H        5.67703409      12.17310416      22.92655113      586
H        5.67938094      12.17972238      24.43926432      587
O        2.66837030       8.18893850      23.69917346      588
H        2.19195942       8.53529177      24.45553006      589
H        2.19195942       8.52867356      22.94010590      590
O        2.60500531      12.78639212      23.68019677      591
H        2.64255494      13.74162121      23.68561868      592
H        3.52262430      12.50842707      23.68019677      593
O        5.24990710       9.14196151      19.14205717      594
H        5.66529983       8.80222646      19.93636715      595
H        4.35340977       8.81105075      19.18001055      596
O        5.27806932       9.08460365      23.69375155      597
H        5.24521339      10.03983274      23.69104059      598
H        4.35810348       8.81325682      23.69646250      599
O        1.37760191      11.89072697      25.98179804      600
H        0.47641088      12.21501952      25.93842275      601
H        1.79064779      12.22384381      25.18477710      602
O        1.29546210      11.87087232      21.43010366      603
H        1.77891354      12.20840131      22.18646026      604
H        1.77891354      12.20178309      20.67374706      605
O        2.60500531      12.76874354      19.17458864      606
H        3.52262430      12.49077850      19.17458864      607
H        2.64255494      13.72397263      19.18001055      608
O        2.64020808       8.24629637      19.23965157      609
H        2.19195942       8.53087963      18.44534159      610
H        2.63316753       7.29106728      19.19356533      611
O        6.48904476       8.14261099      21.40028315      612
H        6.07130517       8.48675819      22.18917121      613
H        7.38084838       8.49117034      21.43010366      614
O        6.56883771       8.16246564      25.94926657      615
H        6.09242683       8.49778855      26.70833412      616
H        6.09007998       8.50440677      25.19562092      617
O        6.58761252      12.75991926      25.88691459      618
H        6.13232331      12.47312992      26.67851361      619
H        6.55475660      13.71514834      25.92215701      620
O        1.29780895       9.13093116      25.90046937      621
H        1.74605761       8.84414182      26.69477935      622
H        1.32831802      10.08616024      25.93571179      623
O        9.17384302      16.54112631      12.35924637      624
H        9.59158261      16.20359733      13.15355635      625
H        8.28203940      16.19477304      12.39177784      626
O       13.04614821      19.25459462      10.18777097      627
H       13.06022932      18.29715946      10.15252855      628
H       13.50143743      19.53035359       9.39346100      629
O       14.40966901      20.09510797      12.43515313      630
H       13.94733924      19.81493686      11.64626506      631
H       14.37446623      21.05033706      12.40804357      632
O       13.10012580      19.19723675      14.69337911      633
H       12.20832218      19.54359002      14.65542573      634
H       13.51786539      19.52814752      13.89906913      635
O       10.38481846      15.61898830      14.66355859      636
H       10.42940864      14.66155314      14.65542573      637
H       11.29774375      15.90136549      14.66084764      638
O       10.50920160      20.13922941      14.68795719      639
H       10.47399882      21.09666457      14.66084764      640
H       10.04687183      19.85905829      13.89906913      641
O       13.07431043      16.49479880      10.10644231      642
H       13.48735632      16.15506375      10.90075229      643
H       12.17546625      16.16388804      10.14439569      644
O       13.02033284      16.43744094      14.70422293      645
H       13.04849506      17.39487610      14.66626955      646
H       13.47562206      16.15065161      13.91262391      647
O        9.19965839      19.24356426      16.94618317      648
H        8.30081421      19.56785681      16.90280788      649
H        9.61270428      19.57668110      16.14916224      650
O        9.14568080      19.30092213      12.44057504      651
H        9.60566372      19.57226896      11.64626506      652
H        9.15741506      18.34348697      12.40804357      653
O       10.45522401      20.19658728      10.18506002      654
H       11.34702763      19.85023400      10.14710664      655
H       10.03748442      19.87229472       9.38532813      656
O       10.46226457      15.59913366      10.11186422      657
H       10.00697535      15.87709870      10.90617420      658
H       10.45287716      14.64390457      10.14981760      659
O       14.28528587      15.57266079      12.41075453      660
H       14.33926346      14.61743171      12.40262166      661
H       15.19586430      15.86606834      12.40804357      662
O       14.31344809      15.51530293      16.95973795      663
H       13.89336165      15.85283191      16.16813893      664
H       15.20290486      15.86165620      16.92720648      665
O       14.43548437      20.18776299      16.89467502      666
H       13.95437979      19.85023400      16.13831842      667
H       13.95907349      19.84802793      17.65374257      668
O        9.11986543      16.48376845      16.95702699      669
H        9.57515465      16.19697911      16.16542797      670
H        9.15037450      17.43899753      16.91636266      671
O        1.37760191      16.46611987       3.36971775      672
H        1.33301173      17.42134896       3.36429584      673
H        0.46232977      16.18374268       3.36971775      674
O        5.22409173      19.25459462       1.15215611      675
H        5.67938094      19.53035359       0.35784613      676
H        5.23817284      18.29715946       1.11691369      677
O        6.53128809      20.16790834       3.39953827      678
H        7.43247911      19.84361579       3.35887393      679
H        6.11824220      19.82817329       2.60793924      680
O        5.19592951      19.19723675       5.61167800      681
H        5.67938094      19.53476574       6.36532364      682
H        5.67703409      19.52814752       4.85261044      683
O        2.58857735      15.54398186       5.67131902      684
H        3.48507467      15.87268656       5.63607660      685
H        2.17553146      15.88371692       4.87700904      686
O        2.60500531      20.13922941       5.60625609      687
H        2.64255494      21.09666457       5.61438895      688
H        3.52262430      19.86347043       5.60896704      689
O        5.25225395      16.49479880       1.16299993      690
H        4.35340977      16.16388804       1.12775751      691
H        5.66060613      16.16168196       0.36326804      692
O        5.19827636      16.43744094       5.57643558      693
H        5.22643858      17.39487610       5.60896704      694
H        5.65121872      16.15726982       6.37074555      695
O        1.32362432      19.31857070       7.90785735      696
H        1.33535858      18.36113554       7.87532589      697
H        1.78360724      19.58991753       7.11354738      698
O        1.29546210      19.22591569       3.35887393      699
H        1.77891354      19.55682646       2.59980638      700
H        1.77891354      19.56123860       4.11251958      701
O        2.63316753      20.19658728       1.14673420      702
H        3.52262430      19.85023400       1.11149178      703
H        2.21542794      19.87229472       0.34971327      704
O        2.64020808      15.59913366       1.07353840      705
H        2.18491887      15.87709870       1.86784838      706
H        2.63082068      14.64390457       1.11149178      707
O        6.56883771      15.49765435       3.37242871      708
H        6.09242683      15.83738941       2.61607211      709
H        6.09242683      15.84400763       4.12878531      710
O        6.46322939      15.59030937       7.87803684      711
H        6.51720698      14.63508028       7.87261493      712
H        7.37380782      15.88371692       7.87532589      713
O        6.58761252      20.11275655       7.81297391      714
H        6.55475660      21.07019171       7.85092729      715
H        6.13232331      19.82596721       8.60457293      716
O        1.34943969      16.55877489       7.91870118      717
H        1.76717928      16.21683376       7.12981311      718
H        0.45763607      16.21242162       7.88888066      719
O        1.29780895       1.75823922       3.32363151      720
H        1.75075132       1.47806810       4.11794149      721
H        1.32597117       2.71567438       3.35616298      722
O        5.19592951       4.47170753       1.10606987      723
H        5.67703409       4.80923651       1.86242647      724
H        5.67234039       4.81144258       0.34700231      725
O        6.50547272       5.38502125       3.35345202      726
H        7.42543856       5.12249871       3.35616298      727
H        6.53128809       6.34245641       3.36158489      728
O        5.22409173       4.56436254       5.65776424      729
H        5.23582599       3.60913346       5.62523278      730
H        5.68407465       4.83791544       4.86345427      731
O        2.58857735       0.83610121       5.57914653      732
H        2.17553146       1.18245448       6.37074555      733
H        3.48507467       1.16701198       5.61438895      734
O        2.60500531       5.43355483       5.60625609      735
H        3.52262430       5.15558978       5.60896704      736
H        2.64255494       6.38878392       5.61438895      737
O        5.27806932       1.71191171       1.11691369      738
H        5.24521339       2.66934687       1.11149178      739
H        4.35810348       1.44056488       1.11691369      740
O        5.17246099       1.80677280       5.62252182      741
H        5.64652502       1.46041953       4.86616522      742
H        5.64652502       1.46703774       6.37887842      743
O        1.29546210       4.53568361       7.86177111      744
H        1.77891354       4.86218223       8.62083866      745
H        1.78126039       4.86880045       7.10812546      746
O        1.37760191       4.51803503       3.31278769      747
H        1.79064779       4.85777009       4.10438671      748
H        0.47641088       4.84232759       3.35345202      749
O        2.63316753       5.49091270       1.05456171      750
H        2.21308109       5.16000193       1.84887169      751
H        3.52262430       5.14455942       1.09251509      752
O        2.64020808       0.89345908       1.07353840      753
H        2.18491887       1.16921805       1.86784838      754
H        2.63082068      21.99674186       1.11149178      755
O        6.54067549       0.86698622       3.41851495      756
H        6.53598179      21.97026900       3.37513967      757
H        6.08773313       1.14495126       2.62420498      758
O        6.48904476       0.80962835       7.83195060      759
H        6.07365202       1.13833305       8.62897153      760
H        7.38084838       1.15598162       7.86177111      761
O        6.53363494       5.47988234       7.90514640      762
H        7.43247911       5.15558978       7.86448206      763
H        6.11824220       5.14014728       7.11083642      764
O        1.37760191       1.77588779       7.87261493      765
H        1.33301173       2.73332295       7.86990398      766
H        0.46232977       1.49571668       7.87532589      767
O        9.09405006       9.18828902      21.44094748      768
H        9.56811409       8.84193575      20.68730184      769
H        9.56811409       8.84855397      22.20001504      770
O       13.10012580      11.82454482      19.13121335      771
H       12.20832218      12.17089809      19.16645577      772
H       13.51786539      12.16207380      19.92552333      773
O       14.32987605      12.74006461      21.42739270      774
H       15.24984189      12.47533600      21.42739270      775
H       14.35334457      13.69529370      21.43281461      776
O       13.04614821      11.91940590      23.72899397      777
H       13.05788247      10.96197075      23.69917346      778
H       13.50613113      12.19075273      22.93468399      779
O       10.41063383       8.19114457      23.65308721      780
H        9.99758794       8.53529177      24.44468624      781
H       11.30947800       8.51984927      23.68832964      782
O       10.42706179      12.78639212      23.68019677      783
H       11.34468078      12.50842707      23.68019677      784
H       10.46695827      13.74162121      23.68561868      785
O       13.02033284       9.06695507      19.14476813      786
H       13.04849506      10.02218416      19.17458864      787
H       13.47562206       8.78457788      19.93636715      788
O       12.99451747       9.15961009      23.69375155      789
H       13.46858150       8.81546289      22.94010590      790
H       13.46858150       8.81987503      24.45281910      791
O        9.19965839      11.89072697      25.98179804      792
H        8.30081421      12.21501952      25.93842275      793
H        9.61270428      12.22384381      25.18477710      794
O        9.14568080      11.94587877      21.38401741      795
H        9.60566372      12.22604988      22.17561644      796
H        9.15741506      10.99064968      21.42468175      797
O       10.50920160      12.76874354      19.12850239      798
H       10.04921868      12.48636635      19.92010142      799
H       10.47869253      13.72397263      19.16103386      800
O       10.41063383       8.17128993      19.23965157      801
H        9.99993479       8.51764320      18.44805255      802
H       11.30947800       8.49999462      19.20712010      803
O       14.28528587       8.21982351      21.44636939      804
H       14.33926346       7.26238835      21.44094748      805
H       15.19586430       8.51102498      21.44365844      806
O       14.36507883       8.23747208      25.90318032      807
H       14.35803827       7.28224299      25.93571179      808
H       13.91213646       8.50881891      26.70291221      809
O       14.35569142      12.83492570      25.97908708      810
H       15.25453559      12.50842707      25.93842275      811
H       13.94264553      12.49519064      25.18477710      812
O        9.19965839       9.13093116      25.94655561      813
H        8.28438625       8.84855397      25.94655561      814
H        9.15741506      10.08616024      25.94384466      815
O        9.17384302       1.83545173       3.41580400      816
H        8.28203940       1.48689239       3.38598349      817
H        9.59158261       1.49130453       2.62420498      818
O       13.12594116       4.54671397       1.10606987      819
H       13.07665728       3.59148488       1.10878082      820
H       12.21301588       4.83570937       1.10335891      821
O       14.43548437       5.46223376       3.35345202      822
H       13.95437979       5.12470478       2.59709542      823
H       13.95437979       5.13132299       4.11251958      824
O       13.10012580       4.48935610       5.56559175      825
H       12.20832218       4.83570937       5.60083418      826
H       13.51786539       4.82688509       6.35719078      827
O       10.41063383       0.83610121       5.67131902      828
H        9.99758794       1.17583627       4.87700904      829
H       11.30947800       1.16701198       5.63607660      830
O       10.53501697       5.50635520       5.60625609      831
H       10.05391238       5.17765050       6.36532364      832
H       10.05391238       5.17103229       4.84989949      833
O       13.07431043       1.78691815       1.16299993      834
H       13.48500946       1.45600738       0.36326804      835
H       12.17546625       1.45600738       1.12775751      836
O       13.02033284       1.73176636       5.57643558      837
H       13.47562206       1.44938917       6.37074555      838
H       13.04849506       2.68699545       5.60896704      839
O        9.14568080       4.61069005       7.81568486      840
H        9.60331687       4.88203688       8.61270580      841
H        9.15506821       3.65546096       7.85092729      842
O        9.14568080       4.59304148       3.40496018      843
H        9.15741506       3.63560632       3.37242871      844
H        9.60566372       4.86438831       2.61065020      845
O       10.50920160       5.41370018       1.14673420      846
H       10.47634567       6.37113534       1.12504656      847
H       10.05156553       5.14235335       0.35242422      848
O       10.46226457       0.89345908       1.16842184      849
H       10.45522401      21.99674186       1.11962464      850
H       10.01401590       1.17583627       0.37140091      851
O       14.39089419       0.78977370       3.37242871      852
H       13.91683016       1.12950876       2.61607211      853
H       13.91683016       1.13612697       4.12878531      854
O       14.36507883       0.88463479       7.83195060      855
H       13.91213646       1.15377555       8.62897153      856
H       14.35803827      21.98791757       7.86448206      857
O       14.40966901       5.40708197       7.81297391      858
H       14.37681308       6.36231105       7.85092729      859
H       13.95437979       5.12029263       8.60457293      860
O        9.09405006       1.85310031       7.87261493      861
H        9.56342039       1.50454096       8.63168249      862
H        9.56811409       1.50674704       7.11896929      863
O       17.02171487       1.75823922       3.36971775      864
H       16.97947154       2.71567438       3.36429584      865
H       16.10878959       1.47806810       3.36971775      866
O       20.87055154       4.54671397       1.15215611      867
H       20.88228580       3.59148488       1.11691369      868
H       21.32584076       4.82467901       0.35784613      869
O       22.23172549       5.38722732       3.39953827      870
H       21.77174257       5.10705620       2.60793924      871
H       22.19652271       6.34245641       3.37242871      872
O       20.87055154       4.56436254       5.65776424      873
H       21.33053446       4.83791544       4.86345427      874
H       20.87993895       3.60913346       5.62523278      875
O       18.31248327       0.83610121       5.62523278      876
H       17.83841924       1.18245448       6.38158938      877
H       17.83841924       1.17583627       4.86887618      878
O       18.27728049       5.50856127       5.56016984      879
H       17.85954090       5.17765050       6.35447982      880
H       19.16908411       5.16220800       5.59812322      881
O       20.89636691       1.78691815       1.16299993      882
H       19.99986959       1.45600738       1.12775751      883
H       21.30706595       1.45600738       0.36326804      884
O       20.89636691       1.80677280       5.66860806      885
H       21.30941280       1.46041953       4.87700904      886
H       19.99986959       1.47586203       5.63336564      887
O       17.04753024       4.61069005       7.86177111      888
H       16.13225810       4.88644902       7.86177111      889
H       17.01232746       3.65546096       7.86719302      890
O       17.02171487       4.51803503       3.31278769      891
H       16.12287070       4.84232759       3.35345202      892
H       17.43476076       4.85777009       4.10438671      893
O       18.27728049       5.49091270       1.05456171      894
H       19.16908411       5.14455942       1.09251509      895
H       17.85954090       5.16000193       1.84887169      896
O       18.28666790       0.89345908       1.07353840      897
H       18.27493364      21.99674186       1.11149178      898
H       17.83137868       1.16921805       1.86784838      899
O       22.13550457       0.78977370       3.41851495      900
H       23.02730819       1.13833305       3.38598349      901
H       21.71776498       1.12730269       2.62691593      902
O       22.21529753       0.80962835       7.87803684      903
H       21.73653979       1.14936340       7.12168024      904
H       21.73653979       1.14274519       8.63710440      905
O       22.17774790       5.47988234       7.90514640      906
H       21.76470201       5.14014728       7.11083642      907
H       23.07893893       5.15558978       7.86448206      908
O       16.99589950       1.85310031       7.82923964      909
H       17.41129224       1.50895311       8.61812771      910
H       16.10409588       1.50674704       7.85634920      911
O       16.94192191      16.46611987       3.41580400      912
H       16.97243099      17.42134896       3.37513967      913
H       17.39721113      16.17933054       2.62420498      914
O       20.87055154      19.25459462       1.05998362      915
H       21.33053446      19.53255967       1.85158264      916
H       20.87993895      18.29715946       1.09793700      917
O       22.15193253      20.09290190       3.35345202      918
H       23.07189837      19.82817329       3.35616298      919
H       22.17774790      21.05033706       3.36158489      920
O       20.84238932      19.19723675       5.61167800      921
H       21.32349391      19.53476574       6.36532364      922
H       21.32349391      19.52814752       4.85261044      923
O       18.31248327      15.54398186       5.62523278      924
H       17.83841924      15.88812906       6.38158938      925
H       17.83841924      15.88371692       4.86887618      926
O       18.25146512      20.13922941       5.60625609      927
H       19.16673726      19.86347043       5.60896704      928
H       18.28901475      21.09666457       5.61438895      929
O       20.89636691      16.49479880       1.16299993      930
H       19.99986959      16.16388804       1.12775751      931
H       21.30706595      16.16168196       0.36326804      932
O       20.92218228      16.43744094       5.62252182      933
H       20.88932636      17.39487610       5.61709991      934
H       20.00456329      16.16609411       5.62252182      935
O       16.97008413      19.31857070       7.90785735      936
H       17.43006705      19.58991753       7.11354738      937
H       16.98181839      18.36113554       7.87532589      938
O       16.94192191      19.22591569       3.35887393      939
H       17.42302650      19.55682646       2.59980638      940
H       17.42302650      19.56123860       4.11251958      941
O       18.27728049      20.19658728       1.14673420      942
H       19.16908411      19.85023400       1.11149178      943
H       17.86188775      19.87229472       0.34971327      944
O       18.28666790      15.59913366       1.16842184      945
H       17.83607239      15.88371692       0.37140091      946
H       18.27728049      14.64390457       1.11962464      947
O       22.21529753      15.49765435       3.37242871      948
H       21.73888665      15.84400763       4.12878531      949
H       21.73888665      15.83738941       2.61607211      950
O       22.18713531      15.59030937       7.92412309      951
H       21.73184609      15.87048049       7.12981311      952
H       22.18244160      14.63508028       7.88074780      953
O       22.15193253      20.11275655       7.85906015      954
H       23.07189837      19.84802793       7.85906015      955
H       22.17774790      21.06798563       7.86448206      956
O       16.99589950      16.55877489       7.82923964      957
H       16.10409588      16.21462769       7.85634920      958
H       17.41129224      16.21683376       8.61812771      959
O        1.29780895       9.11328258      12.35924637      960
H        1.75075132       8.83090539      13.15355635      961
H        1.32597117      10.06851167      12.39177784      962
O        5.30388468      11.89955126      10.14168473      963
H        5.25225395      10.94432217      10.14439569      964
H        4.39095940      12.18854666      10.14168473      965
O        6.58526567      12.74006461      12.43515313      966
H        6.55240975      13.69749977      12.40804357      967
H        6.12528275      12.45989349      11.64626506      968
O        5.19592951      11.84439946      14.64729286      969
H        5.67703409      12.17310416      13.88822531      970
H        5.67938094      12.17972238      15.40364946      971
O        2.56041513       8.26615101      14.66355859      972
H        3.47568726       8.54852820      14.66084764      973
H        2.60500531       7.30871585      14.65542573      974
O        2.63316753      12.86139856      14.68795719      975
H        3.52262430      12.51504529      14.65542573      976
H        2.21308109      12.52386958      13.89635817      977
O        5.17011414       9.14196151      10.15252855      978
H        5.64887187       8.80663860       9.39346100      979
H        5.65121872       8.80002039      10.90888515      980
O        5.19827636       9.08460365      14.61205044      981
H        5.22643858      10.03983274      14.64458191      982
H        5.65121872       8.80443253      15.40636042      983
O        1.29546210      11.89072697      16.90009693      984
H        1.77891354      12.21501952      17.65916448      985
H        1.78126039      12.22384381      16.14374033      986
O        1.37760191      11.87307840      12.44057504      987
H        1.79064779      12.20619524      11.64355411      988
H        0.47641088      12.19516488      12.39719975      989
O        2.68479826      12.76874354      10.18234906      990
H        2.65428919      13.72397263      10.16066142      991
H        2.22716220      12.49519064       9.38803909      992
O        2.58857735       8.17128993      10.11186422      993
H        3.48507467       8.50220069      10.14439569      994
H        2.17553146       8.51764320      10.90346324      995
O        6.54302234       8.21982351      12.36466828      996
H        6.08538628       8.49778855      13.15897826      997
H        6.53128809       7.26238835      12.40262166      998
O        6.48904476       8.16246564      16.86756546      999
H        7.38084838       8.51102498      16.90009693     1000
H        6.07365202       8.49337641      17.66458639     1001
O        6.58761252      12.75991926      16.84858877     1002
H        6.13232331      12.47312992      17.64018779     1003
H        6.55475660      13.71514834      16.88654215     1004
O        1.29780895       9.13093116      16.95702699     1005
H        1.75075132       8.84414182      16.16542797     1006
H        1.32597117      10.08616024      16.91636266     1007
O       16.99589950       9.18828902      12.45141886     1008
H       16.10409588       8.83972968      12.42159835     1009
H       17.41363909       8.84414182      11.66253080     1010
O       20.87055154      11.89955126      10.09559849     1011
H       21.33053446      12.17972238      10.88719751     1012
H       20.87993895      10.94432217      10.13626282     1013
O       22.23172549      12.74006461      12.34569160     1014
H       22.20121642      13.69749977      12.37822306     1015
H       21.77174257      12.45768742      13.13729062     1016
O       20.87055154      11.91940590      14.60120662     1017
H       21.33053446      12.19737095      15.39280564     1018
H       20.88228580      10.96197075      14.64187095     1019
O       18.31248327       8.18893850      14.66355859     1020
H       17.83841924       8.53529177      15.41720424     1021
H       17.83841924       8.52867356      13.90449104     1022
O       18.27728049      12.86139856      14.68795719     1023
H       17.85954090      12.52386958      13.89635817     1024
H       19.16908411      12.51504529      14.65542573     1025
O       20.81657396       9.14196151      10.15252855     1026
H       21.29533169       8.80002039      10.90888515     1027
H       21.29533169       8.80663860       9.39346100     1028
O       20.89636691       9.15961009      14.70422293     1029
H       21.30941280       8.81325682      13.91262391     1030
H       19.99986959       8.82869932      14.66898051     1031
O       17.02171487      11.89072697      16.94618317     1032
H       17.43476076      12.22384381      16.14916224     1033
H       16.12287070      12.21501952      16.90280788     1034
O       16.97008413      11.94587877      12.44057504     1035
H       17.43006705      12.21943167      11.64626506     1036
H       16.98181839      10.99064968      12.40804357     1037
O       18.27728049      12.84374999      10.18506002     1038
H       17.86188775      12.51945743       9.38532813     1039
H       19.16908411      12.49739671      10.14710664     1040
O       18.20687494       8.24629637      10.15795046     1041
H       19.12214708       8.52867356      10.15523951     1042
H       18.25146512       7.29106728      10.14981760     1043
O       22.10734235       8.21982351      12.41075453     1044
H       22.16366679       7.26238835      12.40262166     1045
H       23.02026764       8.51102498      12.40804357     1046
O       22.13550457       8.16246564      16.95973795     1047
H       23.02730819       8.50881891      16.92720648     1048
H       21.71776498       8.49778855      16.16813893     1049
O       22.15193253      12.75771319      16.89467502     1050
H       23.07189837      12.49519064      16.89738597     1051
H       22.17774790      13.71514834      16.90009693     1052
O       16.94192191       9.13093116      16.86485451     1053
H       17.39251743       8.84414182      17.65916448     1054
H       16.97477784      10.08616024      16.90009693     1055
O        9.17384302      16.54112631       3.32363151     1056
H        9.59158261      16.20359733       4.11523053     1057
H        8.28203940      16.19477304       3.35616298     1058
O       13.04614821      19.25459462       1.05998362     1059
H       13.05788247      18.29715946       1.09793700     1060
H       13.50613113      19.53255967       1.85158264     1061
O       14.32987605      20.09290190       3.35345202     1062
H       14.35334457      21.05033706       3.36158489     1063
H       15.24984189      19.82817329       3.35616298     1064
O       13.10012580      19.19723675       5.65776424     1065
H       13.51786539      19.52814752       4.86345427     1066
H       12.20832218      19.54359002       5.61981086     1067
O       10.38481846      15.61898830       5.62523278     1068
H       10.42940864      14.66155314       5.61981086     1069
H       11.29774375      15.90136549       5.62523278     1070
O       10.50920160      20.13922941       5.56016984     1071
H       10.47869253      21.09666457       5.59541226     1072
H       10.04921868      19.85685222       6.35176886     1073
O       13.07431043      16.49479880       1.07082744     1074
H       13.48735632      16.15506375       1.86513742     1075
H       12.17546625      16.16388804       1.10878082     1076
O       13.02033284      16.43744094       5.57643558     1077
H       13.04849506      17.39487610       5.60896704     1078
H       13.47562206      16.15726982       6.37074555     1079
O        9.22547376      19.31857070       7.86177111     1080
H        8.30785477      19.59432968       7.86177111     1081
H        9.18792413      18.36113554       7.86719302     1082
O        9.14568080      19.30092213       3.31278769     1083
H        9.15741506      18.34348697       3.35074107     1084
H        9.60566372      19.57888717       4.10438671     1085
O       10.45522401      20.19658728       1.05456171     1086
H       10.03513757      19.86567651       1.84887169     1087
H       11.34702763      19.85023400       1.09251509     1088
O       10.46226457      15.59913366       1.07353840     1089
H       10.00697535      15.87709870       1.86784838     1090
H       10.45287716      14.64390457       1.11149178     1091
O       14.31344809      15.49765435       3.32634247     1092
H       15.20290486      15.84400763       3.35616298     1093
H       13.89570850      15.83959548       4.11794149     1094
O       14.36507883      15.59251544       7.83195060     1095
H       14.35803827      14.63508028       7.86448206     1096
H       13.91213646      15.86165620       8.62897153     1097
O       14.35569142      20.18776299       7.90514640     1098
H       13.94264553      19.84802793       7.11083642     1099
H       15.25453559      19.86347043       7.86448206     1100
O        9.09405006      16.55877489       7.87261493     1101
H        9.56342039      16.21242162       8.63168249     1102
H        9.56811409      16.21462769       7.11896929     1103
O        1.34943969       1.83545173      21.48703373     1104
H        0.45763607       1.48689239      21.45721321     1105
H        1.76717928       1.49130453      20.69814566     1106
O        5.19592951       4.47170753      19.17729959     1107
H        5.67703409       4.80923651      19.93365619     1108
H        5.67234039       4.81144258      18.42094299     1109
O        6.58526567       5.38722732      21.38130646     1110
H        6.12762961       5.10485013      22.17290548     1111
H        6.55475660       6.34245641      21.41383793     1112
O        5.27572246       4.48935610      23.63682148     1113
H        5.69580891       4.82688509      24.42842050     1114
H        4.38391884       4.83570937      23.67206390     1115
O        2.66837030       0.83610121      23.69917346     1116
H        2.19195942       1.17583627      22.94010590     1117
H        2.19195942       1.18245448      24.45553006     1118
O        2.68714512       5.43355483      23.72628301     1119
H        2.22481534       5.15338371      22.93468399     1120
H        2.64959549       6.38878392      23.69917346     1121
O        5.19827636       1.71191171      19.14476813     1122
H        5.65121872       1.43174059      19.93636715     1123
H        5.22643858       2.66934687      19.17458864     1124
O        5.27806932       1.72956029      23.69375155     1125
H        5.24521339       2.68699545      23.69104059     1126
H        4.35810348       1.45821346      23.69646250     1127
O        1.29546210       4.53568361      25.93571179     1128
H        1.78126039       4.86880045      25.17935519     1129
H        1.77891354       4.86218223      26.69477935     1130
O        1.32362432       4.59304148      21.47618990     1131
H        1.78360724       4.86438831      20.68187993     1132
H        1.33535858       3.63560632      21.44636939     1133
O        2.63316753       5.48870662      19.22067488     1134
H        2.21542794       5.16441407      18.42094299     1135
H        3.52262430       5.14235335      19.18543246     1136
O        2.56041513       0.89345908      19.19356533     1137
H        3.47568726       1.17583627      19.19356533     1138
H        2.60500531      21.99674186      19.18814342     1139
O        6.48904476       0.78977370      21.40028315     1140
H        6.07130517       1.13392090      22.18917121     1141
H        7.38084838       1.13833305      21.43010366     1142
O        6.56883771       0.80962835      25.94926657     1143
H        6.09007998       1.14936340      25.19562092     1144
H        6.09242683       1.14274519      26.70833412     1145
O        6.50781957       5.40487590      25.93028988     1146
H        7.42778541       5.14014728      25.93300084     1147
H        6.53128809       6.36231105      25.93842275     1148
O        1.29780895       1.77588779      25.90046937     1149
H        1.32831802       2.73332295      25.93571179     1150
H        1.74605761       1.49130453      26.69477935     1151
O        1.29780895      16.46611987      21.48703373     1152
H        1.32597117      17.42134896      21.44908035     1153
H        1.75075132      16.17933054      20.69543470     1154
O        5.30388468      19.25459462      19.17729959     1155
H        5.25225395      18.29715946      19.18272150     1156
H        4.39095940      19.54138395      19.17729959     1157
O        6.58526567      20.09510797      21.47347895     1158
H        6.12528275      19.81493686      20.68187993     1159
H        6.55240975      21.05033706      21.44636939     1160
O        5.19592951      19.19723675      23.68290773     1161
H        5.67703409      19.52814752      22.92655113     1162
H        5.67938094      19.53476574      24.43926432     1163
O        2.66837030      15.54398186      23.69917346     1164
H        2.19195942      15.88812906      24.45553006     1165
H        2.19195942      15.88371692      22.94010590     1166
O        2.60500531      20.13922941      23.68019677     1167
H        3.52262430      19.86347043      23.68019677     1168
H        2.64255494      21.09666457      23.68561868     1169
O        5.17011414      16.49479880      19.19085437     1170
H        5.64887187      16.15947589      18.43178682     1171
H        5.65121872      16.15285768      19.94450002     1172
O        5.27806932      16.43744094      23.69375155     1173
H        4.35810348      16.16609411      23.69646250     1174
H        5.24521339      17.39487610      23.69104059     1175
O        1.37760191      19.24356426      25.98179804     1176
H        0.47641088      19.56785681      25.93842275     1177
H        1.79064779      19.57668110      25.18477710     1178
O        1.37760191      19.22591569      21.38401741     1179
H        1.79064779      19.56565074      22.17832739     1180
H        0.47641088      19.55020824      21.42468175     1181
O        2.71296048      20.19658728      19.17458864     1182
H        2.22716220      19.86347043      19.93094524     1183
H        2.22716220      19.87008865      18.41552108     1184
O        2.58857735      15.52412722      19.23965157     1185
H        3.48507467      15.85283191      19.20712010     1186
H        2.17553146      15.87048049      18.44805255     1187
O        6.48904476      15.49765435      21.40028315     1188
H        6.07130517      15.83959548      22.18917121     1189
H        7.38084838      15.84400763      21.43010366     1190
O        6.48904476      15.51530293      25.99535281     1191
H        6.07130517      15.85283191      25.20375379     1192
H        7.38084838      15.86165620      25.96282135     1193
O        6.50781957      20.11275655      25.93028988     1194
H        6.53128809      21.06798563      25.93842275     1195
H        7.42778541      19.84802793      25.93300084     1196
O        1.29780895      16.48376845      25.90046937     1197
H        1.74605761      16.19918518      26.69477935     1198
H        1.32831802      17.43899753      25.93571179     1199
O        9.09405006       1.83324566      21.44094748     1200
H        9.56811409       1.49571668      22.20001504     1201
H        9.56811409       1.48909846      20.68730184     1202
O       13.10012580       4.47170753      19.22338584     1203
H       12.20597533       4.81585473      19.19085437     1204
H       13.51786539       4.80923651      18.43178682     1205
O       14.43548437       5.46223376      21.42739270     1206
H       13.95437979       5.13132299      22.18646026     1207
H       13.95437979       5.12470478      20.67103610     1208
O       13.10012580       4.48935610      23.63682148     1209
H       13.51786539       4.82688509      24.42842050     1210
H       12.20832218       4.83570937      23.67206390     1211
O       10.38481846       0.91110765      23.69917346     1212
H       11.29774375       1.19348484      23.69646250     1213
H       10.42940864      22.01659651      23.69375155     1214
O       10.50920160       5.43355483      23.72628301     1215
H       10.47399882       6.38878392      23.69917346     1216
H       10.04687183       5.15338371      22.93468399     1217
O       13.02033284       1.71191171      19.14476813     1218
H       13.47562206       1.43174059      19.93636715     1219
H       13.04849506       2.66934687      19.17458864     1220
O       13.02033284       1.73176636      23.64766530     1221
H       13.04849506       2.68699545      23.68019677     1222
H       13.47562206       1.44938917      24.44197528     1223
O        9.14568080       4.61069005      25.98179804     1224
H        9.60566372       4.88424295      25.18748806     1225
H        9.15741506       3.65546096      25.94926657     1226
O        9.22547376       4.59304148      21.43010366     1227
H        8.30785477       4.86880045      21.43010366     1228
H        9.18792413       3.63560632      21.43552557     1229
O       10.50920160       5.41590625      19.12850239     1230
H       10.47869253       6.37113534      19.16103386     1231
H       10.04921868       5.13352906      19.92010142     1232
O       10.41063383       0.81845264      19.23965157     1233
H        9.99993479       1.16259984      18.44805255     1234
H       11.30947800       1.14495126      19.20712010     1235
O       14.36507883       0.86698622      21.40028315     1236
H       14.35334457      21.97026900      21.43823653     1237
H       13.90978961       1.14274519      22.19459313     1238
O       14.28528587       0.88242872      25.95197752     1239
H       14.33926346      21.98791757      25.94384466     1240
H       15.19586430       1.17583627      25.94926657     1241
O       14.35569142       5.47988234      25.88420364     1242
H       15.25688244       5.15779585      25.92486797     1243
H       13.94499238       5.14014728      26.68122457     1244
O        9.17384302       1.85310031      25.99264186     1245
H        8.28203940       1.50454096      25.96282135     1246
H        9.59158261       1.50895311      25.20104284     1247
O        9.17384302       9.18828902      12.45141886     1248
H        8.28203940       8.83972968      12.42159835     1249
H        9.59158261       8.84414182      11.66253080     1250
O       13.02033284      11.82454482      10.14168473     1251
H       13.49674372      12.16427987       9.38532813     1252
H       13.50143743      12.16207380      10.89804133     1253
O       14.35569142      12.81507105      12.34298064     1254
H       13.94029868      12.48195421      13.14000157     1255
H       15.25453559      12.49077850      12.38635593     1256
O       13.10012580      11.84219339      14.60120662     1257
H       12.20832218      12.18854666      14.63644904     1258
H       13.51786539      12.17972238      15.39280564     1259
O       10.41063383       8.19114457      14.70964484     1260
H       11.30947800       8.51984927      14.67169146     1261
H        9.99758794       8.52867356      13.91533486     1262
O       10.53501697      12.86139856      14.64458191     1263
H       10.05391238      12.52386958      13.88822531     1264
H       10.05391238      12.53048779      15.40093851     1265
O       13.10012580       9.06474900      10.15252855     1266
H       13.06726987      10.02218416      10.14981760     1267
H       12.18250681       8.79560824      10.15523951     1268
O       13.02033284       9.08460365      14.61205044     1269
H       13.47562206       8.80443253      15.40636042     1270
H       13.04849506      10.03983274      14.64458191     1271
O        9.19965839      11.89072697      16.85129973     1272
H        9.61035742      12.21722560      17.65374257     1273
H        8.30081421      12.21501952      16.89467502     1274
O        9.22547376      11.94587877      12.39448880     1275
H        8.30785477      12.22163774      12.39448880     1276
H        9.18792413      10.99064968      12.39719975     1277
O       10.45522401      12.84374999      10.09288753     1278
H       10.03513757      12.51283922      10.88719751     1279
H       11.34702763      12.49739671      10.12812995     1280
O       10.46226457       8.24629637      10.20403671     1281
H       10.01401590       8.53087963       9.40701577     1282
H       10.45522401       7.29106728      10.15523951     1283
O       14.39089419       8.14481706      12.41075453     1284
H       13.91683016       8.48234605      11.65168697     1285
H       13.91683016       8.48896426      13.16440017     1286
O       14.31344809       8.16246564      16.86756546     1287
H       13.89805535       8.49337641      17.66458639     1288
H       15.20290486       8.51102498      16.90009693     1289
O       14.40966901      12.75991926      16.84858877     1290
H       13.95437979      12.47312992      17.64018779     1291
H       14.37681308      13.71514834      16.88654215     1292
O        9.11986543       9.13093116      16.95702699     1293
H        9.57515465       8.84414182      16.16542797     1294
H        9.15037450      10.08616024      16.91636266     1295
